DATASET = "thpack4";
INSTANCE = "097";

WIDTH = 233;
HEIGHT = 220;
LENGTH = 587;

NO_OF_SHAPES = 10;
size = [|
  74,60,32 |
  100,50,43 |
  95,74,42 |
  95,70,30 |
  45,37,24 |
  67,60,25 |
  55,51,35 |
  76,71,61 |
  119,88,51 |
  98,81,26 |
|];

verticality = [|
  0,1,1 |
  0,1,1 |
  0,1,1 |
  0,0,1 |
  1,1,1 |
  0,0,1 |
  1,1,1 |
  1,1,1 |
  0,1,1 |
  0,0,1 |
|];

box_count = [
  15,
  13,
  16,
  15,
  16,
  14,
  12,
  16,
  11,
  14,
];
